c turning on binary mode checking
c parsing input formula with 259840 variables and 1039929 clauses
c finished parsing, read 28392632 bytes from proof file
c detected empty clause; start verification via backward checking
c 29093 of 1039929 clauses in core                            
c 45072 of 680011 lemmas in core using 378115 resolution steps
c 0 RAT lemmas in core; 3773 redundant literals in core lemmas
s VERIFIED
c verification time: 3.930 seconds
